
Gurobi 11.0.3 (linux64) logging started Sat Nov 23 17:41:32 2024

Set parameter LogFile to value "/home/yihong/Coding/OR_SUC/SUC_results_bigM100000_thread4/case24_ieee_rts_theta0.5_epsilon0.025_gurobi_seed450000_num_gen100_N_WDR150_load_scaling_factor1_proposed_T24quadra_cost.txt"
Set parameter TimeLimit to value 3600
Gurobi Optimizer version 11.0.3 build v11.0.3rc0 (linux64 - "Ubuntu 20.04.6 LTS")

CPU model: AMD EPYC 7532 32-Core Processor, instruction set [SSE2|AVX|AVX2]
Thread count: 64 physical cores, 128 logical processors, using up to 4 threads

Optimize a model with 53864 rows, 29911 columns and 911262 nonzeros
Model fingerprint: 0xa946383e
Model has 2400 quadratic constraints
Variable types: 27511 continuous, 2400 integer (2400 binary)
Coefficient statistics:
  Matrix range     [3e-04, 3e+03]
  QMatrix range    [2e-03, 8e-03]
  QLMatrix range   [4e-02, 6e+01]
  Objective range  [1e+00, 1e+00]
  Bounds range     [1e+00, 1e+00]
  RHS range        [1e+00, 9e+03]
Presolve removed 43711 rows and 12776 columns
Presolve time: 0.31s
Presolved: 10153 rows, 17135 columns, 53652 nonzeros
Presolved model has 2400 quadratic constraint(s)
Variable types: 14735 continuous, 2400 integer (2400 binary)

Root relaxation: objective 7.937147e+04, 8324 iterations, 0.21 seconds (0.29 work units)

    Nodes    |    Current Node    |     Objective Bounds      |     Work
 Expl Unexpl |  Obj  Depth IntInf | Incumbent    BestBd   Gap | It/Node Time

     0     0 79371.4746    0   24          - 79371.4746      -     -    0s
     0     0 383902.560    0  733          - 383902.560      -     -    1s
     0     0 435936.683    0  679          - 435936.683      -     -    1s
     0     0 687401.725    0  657          - 687401.725      -     -    1s
     0     0 687439.294    0  469          - 687439.294      -     -    1s
     0     0 687667.864    0  364          - 687667.864      -     -    1s
     0     0 687668.267    0  364          - 687668.267      -     -    1s
     0     0 687668.317    0  377          - 687668.317      -     -    1s
     0     0 687668.349    0  377          - 687668.349      -     -    1s
     0     2 687668.452    0  377          - 687668.452      -     -    2s
H  689   582                    688076.39403 687671.846  0.06%  26.7    4s
*  689   582             191    688076.39403 687671.846  0.06%  26.7    4s

Cutting planes:
  Gomory: 8
  Implied bound: 347
  MIR: 56
  Flow cover: 112
  RLT: 19

Explored 781 nodes (44415 simplex iterations) in 5.48 seconds (7.19 work units)
Thread count was 4 (of 128 available processors)

Solution count 2: 688076 688076 

Optimal solution found (tolerance 1.00e-03)
Warning: max constraint violation (4.7307e-07) exceeds tolerance
Best objective 6.880763940271e+05, best bound 6.876718455960e+05, gap 0.0588%
